(declare-const X String)
; /filename=[^\n]*\x2esmil/i
(assert (str.in_re X (re.++ (str.to_re "/filename=") (re.* (re.comp (str.to_re "\u{a}"))) (str.to_re ".smil/i\u{a}"))))
; ovpl\s+\x7D\x7BPort\x3A.*SOAPAction\x3A.*adfsgecoiwnfHost\x3A\x3Fsearch\x3D
(assert (not (str.in_re X (re.++ (str.to_re "ovpl") (re.+ (re.union (str.to_re " ") (str.to_re "\u{9}") (str.to_re "\u{a}") (str.to_re "\u{c}") (str.to_re "\u{d}"))) (str.to_re "}{Port:") (re.* re.allchar) (str.to_re "SOAPAction:") (re.* re.allchar) (str.to_re "adfsgecoiwnf\u{1b}Host:?search=\u{a}")))))
; ^((\b[A-Z0-9](\w)*\b)|\s)*$
(assert (not (str.in_re X (re.++ (re.* (re.union (re.++ (re.union (re.range "A" "Z") (re.range "0" "9")) (re.* (re.union (re.range "0" "9") (re.range "A" "Z") (re.range "a" "z") (str.to_re "_")))) (str.to_re " ") (str.to_re "\u{9}") (str.to_re "\u{a}") (str.to_re "\u{c}") (str.to_re "\u{d}"))) (str.to_re "\u{a}")))))
; \stoolbar\.anwb\.nl\s+A-311\s+newsSoftActivitypassword\x3B1\x3BOptix
(assert (str.in_re X (re.++ (re.union (str.to_re " ") (str.to_re "\u{9}") (str.to_re "\u{a}") (str.to_re "\u{c}") (str.to_re "\u{d}")) (str.to_re "toolbar.anwb.nl") (re.+ (re.union (str.to_re " ") (str.to_re "\u{9}") (str.to_re "\u{a}") (str.to_re "\u{c}") (str.to_re "\u{d}"))) (str.to_re "A-311") (re.+ (re.union (str.to_re " ") (str.to_re "\u{9}") (str.to_re "\u{a}") (str.to_re "\u{c}") (str.to_re "\u{d}"))) (str.to_re "newsSoftActivity\u{13}password;1;Optix\u{a}"))))
(check-sat)

(exit)
